55708
53, 34, 54, 47, 30, 4, 18, 12, 9, 14, 2, 52, 25, 31, 11, 45, 42, 33, 27, 1, 36, 46, 39, 15, 16, 10, 22, 29, 21, 23, 17, 48, 19, 32, 41, 5, 37, 7, 51, 40, 43, 13, 35, 24, 20, 50, 38, 8, 44, 49, 3, 6, 28, 55, 26
